param sigma
: 1   2 :=
1 0.00001 0.99999
2 0.04762 0.95238
3 0.09524 0.90476
4 0.14286 0.85714
5 0.19048 0.80952
6 0.23810 0.76190
7 0.28571 0.71429
8 0.33333 0.66667
9 0.38095 0.61905
10 0.42857 0.57143
11 0.47619 0.52381
12 0.50000 0.50000
13 0.57143 0.42857
14 0.61905 0.38095
15 0.66667 0.33333
16 0.71429 0.28571
17 0.76190 0.23810
18 0.80952 0.19048
19 0.85714 0.14286
20 0.90476 0.09524
21 0.95238 0.04762
22 0.99999 0.00001
;
set S :=
1 2 3 4 5 6 7 8 9 10 11 12 13 14 15 16 17 18 19 ;

set C :=
1 2 3 4 5 6 7 8 9 10 11 12 13 14 15 16 17 18 19 20 21 22 23 24 25 26 27 28 29 30 31 32 33 34 35 36 37 38 39 40 41 42 ;

set M:=
1 2 3 4 5 6 7 8 9 10 11 12 13 14 15 16 17 18 19 20 21 ;

set T:=
1_1_2 1_3_4 1_5_6 1_7_8 1_9_10 1_11_12 1_13_14 1_15_16 1_17_18 1_19_20
2_1_2 2_3_4 2_5_6 2_7_8 2_9_10 2_11_12 2_13_14 2_15_16 2_17_18 2_19_20
3_1_2 3_3_4 3_5_6 3_7_8 3_9_10 3_11_12 3_13_14 3_15_16 3_17_18 3_19_20
4_1_2 4_3_4 4_5_6 4_7_8 4_9_10 4_11_12 4_13_14 4_15_16 4_17_18 4_19_20
5_1_2 5_3_4 5_5_6 5_7_8 5_9_10 5_11_12 5_13_14 5_15_16 5_17_18 5_19_20
;

set R:=
1 2 3 4 5 6 7 ;

set CM[1]:=
1 2 ;
set CM[2]:=
3 4 ;
set CM[3]:=
5 6 ;
set CM[4]:=
7 8 ;
set CM[5]:=
9 10 ;
set CM[6]:=
11 12 ;
set CM[7]:=
13 14 ;
set CM[8]:=
15 16 ;
set CM[9]:=
17 18 ;
set CM[10]:=
19 20 ;
set CM[11]:=
21 22 ;
set CM[12]:=
23 24 ;
set CM[13]:=
25 26 ;
set CM[14]:=
27 28 ;
set CM[15]:=
29 30 ;
set CM[16]:=
31 32 ;
set CM[17]:=
33 34 ;
set CM[18]:=
35 36 ;
set CM[19]:=
37 38 ;
set CM[20]:=
39 40 ;
set CM[21]:=
41 42 ;

set Ms[1]:=
1 19 20 7 8 ;
set Ms[2]:=
1 19 7 8 11 ;
set Ms[3]:=
19 4 5 8 9 ;
set Ms[4]:=
3 5 6 9 15 ;
set Ms[5]:=
3 5 6 9 15 ;
set Ms[6]:=
3 5 6 9 15 ;
set Ms[7]:=
17 2 5 6 7 10 ;
set Ms[8]:=
3 5 6 7 10 ;
set Ms[9]:=
17 5 6 9 10 ;
set Ms[10]:=
17 4 5 6 9 ;
set Ms[11]:=
18 19 3 21 7 ;
set Ms[12]:=
16 2 7 9 11 12 ;
set Ms[13]:=
16 17 20 12 13 ;
set Ms[14]:=
3 5 6 9 14 ;
set Ms[15]:=
3 5 6 11 14 ;
set Ms[16]:=
3 5 21 6 14 ;
set Ms[17]:=
18 3 21 6 9 ;
set Ms[18]:=
3 6 9 11 12 ;
set Ms[19]:=
17 18 4 5 7 ;

set Rc[1]:=
2 4 6 ;
set Rc[2]:=
1 3 5 7 ;
set Rc[3]:=
2 4 6 ;
set Rc[4]:=
1 3 5 7 ;
set Rc[5]:=
2 4 6 ;
set Rc[6]:=
1 3 5 7 ;
set Rc[7]:=
2 4 6 ;
set Rc[8]:=
1 3 5 7 ;
set Rc[9]:=
2 4 6 ;
set Rc[10]:=
1 3 5 7 ;
set Rc[11]:=
2 4 6 ;
set Rc[12]:=
1 3 5 7 ;
set Rc[13]:=
2 4 6 ;
set Rc[14]:=
1 3 5 7 ;
set Rc[15]:=
2 4 6 ;
set Rc[16]:=
1 3 5 7 ;
set Rc[17]:=
2 4 6 ;
set Rc[18]:=
1 3 5 7 ;
set Rc[19]:=
2 4 6 ;
set Rc[20]:=
1 3 5 7 ;
set Rc[21]:=
2 4 6 ;
set Rc[22]:=
1 3 5 7 ;
set Rc[23]:=
2 4 6 ;
set Rc[24]:=
1 3 5 7 ;
set Rc[25]:=
2 4 6 ;
set Rc[26]:=
1 3 5 7 ;
set Rc[27]:=
2 4 6 ;
set Rc[28]:=
1 3 5 7 ;
set Rc[29]:=
2 4 6 ;
set Rc[30]:=
1 3 5 7 ;
set Rc[31]:=
2 4 6 ;
set Rc[32]:=
1 3 5 7 ;
set Rc[33]:=
2 4 6 ;
set Rc[34]:=
1 3 5 7 ;
set Rc[35]:=
2 4 6 ;
set Rc[36]:=
1 3 5 7 ;
set Rc[37]:=
2 4 6 ;
set Rc[38]:=
1 3 5 7 ;
set Rc[39]:=
2 4 6 ;
set Rc[40]:=
1 3 5 7 ;
set Rc[41]:=
2 4 6 ;
set Rc[42]:=
1 3 5 7 ;


set PTs[1]:=
1_15_16 2_17_18 2_9_10 2_3_4 3_9_10 3_3_4 3_15_16 3_5_6 4_15_16 4_1_2 5_13_14  ; 
set PTs[2]:=
1_9_10 1_11_12 1_5_6 2_9_10 2_1_2 2_15_16 3_11_12 3_17_18 4_17_18 5_15_16 5_7_8  ; 
set PTs[3]:=
1_1_2 1_15_16 1_7_8 2_5_6 3_13_14 3_17_18 3_15_16 3_19_20 4_19_20 4_7_8 5_7_8  ; 
set PTs[4]:=
2_15_16 2_5_6 3_19_20 3_7_8 4_5_6 5_15_16 5_11_12 5_5_6 5_13_14 5_3_4 5_9_10  ; 
set PTs[5]:=
1_5_6 1_1_2 1_19_20 1_7_8 3_19_20 3_5_6 4_7_8 4_5_6 5_19_20 5_1_2 5_15_16  ; 
set PTs[6]:=
1_11_12 1_7_8 1_19_20 3_1_2 4_7_8 4_13_14 4_15_16 4_1_2 5_9_10 5_5_6 5_7_8  ; 
set PTs[7]:=
1_13_14 1_1_2 1_7_8 2_5_6 2_11_12 2_1_2 3_17_18 3_7_8 3_19_20 3_13_14 4_5_6 4_11_12 5_13_14  ; 
set PTs[8]:=
1_13_14 2_3_4 2_15_16 2_13_14 3_3_4 3_9_10 3_13_14 3_5_6 4_5_6 4_1_2 4_15_16  ; 
set PTs[9]:=
1_19_20 2_5_6 2_11_12 2_1_2 3_11_12 4_17_18 5_3_4 5_15_16 5_7_8 5_17_18 5_11_12  ; 
set PTs[10]:=
1_1_2 1_3_4 1_11_12 2_11_12 2_1_2 3_15_16 3_7_8 3_5_6 4_9_10 4_19_20 4_11_12  ; 
set PTs[11]:=
1_1_2 1_13_14 1_3_4 2_3_4 3_15_16 3_1_2 3_7_8 3_11_12 4_7_8 5_1_2 5_3_4  ; 
set PTs[12]:=
1_11_12 2_7_8 2_9_10 2_17_18 3_11_12 3_17_18 3_13_14 3_7_8 3_1_2 4_17_18 5_11_12 5_19_20 5_3_4  ; 
set PTs[13]:=
1_19_20 1_17_18 2_11_12 2_13_14 3_17_18 3_15_16 3_11_12 4_3_4 4_7_8 5_1_2 5_15_16  ; 
set PTs[14]:=
1_19_20 1_7_8 2_13_14 2_9_10 3_3_4 3_9_10 4_17_18 4_11_12 5_15_16 5_5_6 5_9_10  ; 
set PTs[15]:=
1_3_4 1_5_6 2_5_6 3_9_10 3_11_12 3_15_16 4_17_18 4_19_20 5_15_16 5_19_20 5_5_6  ; 
set PTs[16]:=
1_13_14 1_9_10 1_19_20 3_15_16 4_19_20 4_5_6 4_1_2 5_11_12 5_7_8 5_19_20 5_17_18  ; 
set PTs[17]:=
1_3_4 1_1_2 1_17_18 2_7_8 3_7_8 3_13_14 4_5_6 4_17_18 5_11_12 5_13_14 5_7_8  ; 
set PTs[18]:=
1_9_10 1_17_18 2_17_18 2_1_2 3_3_4 3_11_12 3_5_6 4_13_14 4_1_2 5_15_16 5_13_14  ; 
set PTs[19]:=
1_7_8 1_1_2 2_9_10 2_13_14 2_15_16 3_3_4 3_13_14 4_7_8 4_17_18 4_3_4 5_19_20  ; 

param room_cpcty:=
1 100
2 100
3 100
4 100
5 100
6 100
7 100
;

param class_limit:=
1 100
2 100
3 100
4 100
5 100
6 100
7 100
8 100
9 100
10 100
11 100
12 100
13 100
14 100
15 100
16 100
17 100
18 100
19 100
20 100
21 100
22 100
23 100
24 100
25 100
26 100
27 100
28 100
29 100
30 100
31 100
32 100
33 100
34 100
35 100
36 100
37 100
38 100
39 100
40 100
41 100
42 100
;

param kmin:=
1 2
2 2
3 2
4 2
5 2
6 2
7 3
8 2
9 2
10 2
11 2
12 3
13 2
14 2
15 2
16 2
17 2
18 2
19 2
;

param kmax:=
1 5
2 5
3 5
4 5
5 5
6 5
7 6
8 5
9 5
10 5
11 5
12 6
13 5
14 5
15 5
16 5
17 5
18 5
19 5
;

